
Gurobi 7.5.1 (win64, Python) logging started 10/12/17 19:04:03

Academic license - for non-commercial use only

Gurobi 7.5.1 (win64, Python) logging started 10/12/17 19:04:59

Academic license - for non-commercial use only

Gurobi 7.5.1 (win64, Python) logging started 10/12/17 19:09:20

Academic license - for non-commercial use only

Gurobi 7.5.1 (win64, Python) logging started 10/12/17 19:16:26

Academic license - for non-commercial use only

Gurobi 7.5.1 (win64, Python) logging started 10/12/17 19:18:47

Academic license - for non-commercial use only

Gurobi 7.5.1 (win64, Python) logging started 10/12/17 19:20:01

Academic license - for non-commercial use only

Gurobi 7.5.1 (win64, Python) logging started 10/12/17 19:20:21

Academic license - for non-commercial use only

Gurobi 7.5.1 (win64, Python) logging started 10/12/17 19:21:18

Academic license - for non-commercial use only

Gurobi 7.5.1 (win64, Python) logging started 10/12/17 19:22:58

Academic license - for non-commercial use only

Gurobi 7.5.1 (win64, Python) logging started 10/12/17 19:24:19

Academic license - for non-commercial use only

Gurobi 7.5.1 (win64, Python) logging started 10/12/17 19:29:15

Academic license - for non-commercial use only

Gurobi 7.5.1 (win64, Python) logging started 10/12/17 19:29:37

Academic license - for non-commercial use only

Gurobi 7.5.1 (win64, Python) logging started 10/12/17 19:30:46

Academic license - for non-commercial use only

Gurobi 7.5.1 (win64, Python) logging started 10/12/17 19:36:40

Academic license - for non-commercial use only

Gurobi 7.5.1 (win64, Python) logging started 10/12/17 19:37:17

Academic license - for non-commercial use only

Gurobi 7.5.1 (win64, Python) logging started 10/12/17 19:37:28

Academic license - for non-commercial use only

Gurobi 7.5.1 (win64, Python) logging started 10/12/17 19:38:17

Academic license - for non-commercial use only

Gurobi 7.5.1 (win64, Python) logging started 10/12/17 19:38:42

Academic license - for non-commercial use only

Gurobi 7.5.1 (win64, Python) logging started 10/12/17 19:38:48

Academic license - for non-commercial use only

Gurobi 7.5.1 (win64, Python) logging started 10/12/17 19:39:16

Academic license - for non-commercial use only

Gurobi 7.5.1 (win64, Python) logging started 10/12/17 19:42:15

Academic license - for non-commercial use only

Gurobi 7.5.1 (win64, Python) logging started 10/12/17 19:42:42

Academic license - for non-commercial use only

Gurobi 7.5.1 (win64, Python) logging started 10/12/17 19:42:45

Academic license - for non-commercial use only

Gurobi 7.5.1 (win64, Python) logging started 10/12/17 19:42:48

Academic license - for non-commercial use only

Gurobi 7.5.1 (win64, Python) logging started 10/12/17 19:42:50

Academic license - for non-commercial use only

Gurobi 7.5.1 (win64, Python) logging started 10/12/17 19:42:52

Academic license - for non-commercial use only

Gurobi 7.5.1 (win64, Python) logging started 10/12/17 19:42:54

Academic license - for non-commercial use only

Gurobi 7.5.1 (win64, Python) logging started 10/12/17 19:43:14

Academic license - for non-commercial use only

Gurobi 7.5.1 (win64, Python) logging started 10/12/17 19:43:39

Academic license - for non-commercial use only

Gurobi 7.5.1 (win64, Python) logging started 10/12/17 19:43:41

Academic license - for non-commercial use only

Gurobi 7.5.1 (win64, Python) logging started 10/12/17 19:43:46

Academic license - for non-commercial use only

Gurobi 7.5.1 (win64, Python) logging started 10/12/17 19:44:13

Academic license - for non-commercial use only
